
Gurobi 10.0.0 (win64) logging started Thu Jun 13 08:29:08 2024

Set parameter LogFile to value "C:\Users\ealvarezq\Documents\GitHub\Comillas\Models\JointResearch\05. Models\06.Benchmarking\D.Representative_days_based_on_RES_and_Demand\RTS24_mod2_ByStages_nc30/openStarNet_RTS24_mod2_ByStages_nc30.log"
Set parameter Method to value 2
Set parameter MIPFocus to value 1
Set parameter Presolve to value 2
Set parameter RINS to value 100
Set parameter MIPGap to value 0.01
Set parameter Threads to value 9
Set parameter TimeLimit to value 259200
Set parameter IterationLimit to value 760000000
Gurobi Optimizer version 10.0.0 build v10.0.0rc2 (win64)

CPU model: Intel(R) Core(TM) i7-8700 CPU @ 3.20GHz, instruction set [SSE2|AVX|AVX2]
Thread count: 6 physical cores, 12 logical processors, using up to 9 threads

Optimize a model with 10653 rows, 7203 columns and 29009 nonzeros
Model fingerprint: 0x7c0ecc66
Variable types: 7182 continuous, 21 integer (21 binary)
Coefficient statistics:
  Matrix range     [9e-03, 1e+03]
  Objective range  [1e+00, 1e+00]
  Bounds range     [3e-05, 2e+00]
  RHS range        [3e-05, 2e+00]
Presolve removed 6343 rows and 3635 columns
Presolve time: 0.05s
Presolved: 4310 rows, 3568 columns, 15567 nonzeros
Variable types: 3547 continuous, 21 integer (21 binary)
Found heuristic solution: objective 136.1108386
Root relaxation presolve removed 5 rows and 5 columns
Root relaxation presolved: 4305 rows, 3563 columns, 15557 nonzeros

Root barrier log...

Ordering time: 0.00s

Barrier statistics:
 Dense cols : 21
 AA' NZ     : 2.889e+04
 Factor NZ  : 8.281e+04 (roughly 4 MB of memory)
 Factor Ops : 1.696e+06 (less than 1 second per iteration)
 Threads    : 9

                  Objective                Residual
Iter       Primal          Dual         Primal    Dual     Compl     Time
   0   2.74443922e+06 -4.73769784e+07  2.24e+01 2.64e+02  3.98e+04     0s
   1   8.97803639e+05 -2.59131306e+07  7.21e+00 2.65e+01  1.18e+04     0s
   2   7.69071267e+04 -1.59503966e+07  5.51e-01 5.70e+00  2.16e+03     0s
   3   2.51299559e+04 -2.28541655e+06  9.06e-02 6.68e-10  2.63e+02     0s
   4   1.37535463e+04 -1.68414912e+05  3.46e-03 1.28e-11  1.82e+01     0s
   5   4.57667819e+03 -2.76431150e+04  4.53e-04 2.36e-11  3.20e+00     0s
   6   6.26105593e+02 -3.64483906e+03  2.22e-05 2.10e-12  4.24e-01     0s
   7   4.00538880e+02 -9.89836629e+02  7.51e-06 2.39e-12  1.38e-01     0s
   8   2.41330613e+02 -2.85501822e+02  3.13e-06 2.28e-12  5.23e-02     0s
   9   1.43756518e+02 -9.20531433e+00  1.03e-06 1.13e-12  1.52e-02     0s
  10   1.06704173e+02  5.20234325e+01  4.52e-07 1.85e-12  5.43e-03     0s
  11   9.60879960e+01  6.45577916e+01  2.90e-07 1.83e-12  3.13e-03     0s
  12   8.67427134e+01  7.09011111e+01  1.47e-07 1.41e-12  1.57e-03     0s
  13   8.46950220e+01  7.34578676e+01  1.15e-07 1.57e-12  1.12e-03     0s
  14   8.13478102e+01  7.57253734e+01  6.28e-08 3.33e-12  5.58e-04     0s
  15   7.90659906e+01  7.66087249e+01  2.51e-08 1.57e-12  2.44e-04     0s
  16   7.78452483e+01  7.71771280e+01  5.10e-09 2.08e-12  6.63e-05     0s
  17   7.75247190e+01  7.74933415e+01  1.46e-10 3.00e-12  3.11e-06     0s
  18   7.75122863e+01  7.75082951e+01  1.96e-11 1.07e-12  3.96e-07     0s
  19   7.75104013e+01  7.75098409e+01  9.90e-12 1.25e-12  5.56e-08     0s
  20   7.75102456e+01  7.75101988e+01  4.01e-11 1.26e-12  4.65e-09     0s
  21   7.75102426e+01  7.75102424e+01  4.12e-11 2.53e-12  1.17e-11     0s

Barrier solved model in 21 iterations and 0.17 seconds (0.14 work units)
Optimal objective 7.75102426e+01


Root relaxation: objective 7.751024e+01, 669 iterations, 0.11 seconds (0.07 work units)

    Nodes    |    Current Node    |     Objective Bounds      |     Work
 Expl Unexpl |  Obj  Depth IntInf | Incumbent    BestBd   Gap | It/Node Time

     0     0   77.51024    0   15  136.11084   77.51024  43.1%     -    0s
     0     0   78.58711    0   16  136.11084   78.58711  42.3%     -    0s
H    0     0                     136.0902480   78.58711  42.3%     -    0s
H    0     0                     124.1011492   78.58711  36.7%     -    0s
     0     0   78.68815    0   16  124.10115   78.68815  36.6%     -    0s
H    0     0                     119.7139633   79.09478  33.9%     -    0s
     0     0   80.10174    0   17  119.71396   80.10174  33.1%     -    0s
     0     0   80.10174    0   12  119.71396   80.10174  33.1%     -    0s
     0     0   80.10174    0   12  119.71396   80.10174  33.1%     -    0s
     0     0   80.10174    0   15  119.71396   80.10174  33.1%     -    0s
     0     0   80.10174    0   14  119.71396   80.10174  33.1%     -    0s
     0     0   80.10174    0   12  119.71396   80.10174  33.1%     -    0s
H    0     0                     105.7054909   80.19485  24.1%     -    0s
     0     0   80.19485    0   12  105.70549   80.19485  24.1%     -    0s
     0     0   80.58419    0   12  105.70549   80.58419  23.8%     -    0s
H    0     0                     104.9528874   81.06229  22.8%     -    0s
     0     0   81.06229    0   15  104.95289   81.06229  22.8%     -    0s
     0     0   81.11312    0   11  104.95289   81.11312  22.7%     -    1s
     0     0   81.11312    0   11  104.95289   81.11312  22.7%     -    1s
H    0     0                      96.3756964   81.11312  15.8%     -    3s
     0     2   81.11312    0   11   96.37570   81.11312  15.8%     -    3s
    98    85   94.55402   10   10   96.37570   82.82120  14.1%   153    5s
  1117   245   93.79176   13    7   96.37570   90.57346  6.02%  96.1   11s
  1396   250     cutoff   11        96.37570   92.28100  4.25%  90.8   15s
  2599    15     cutoff   14        96.37570   94.69833  1.74%  73.5   20s

Cutting planes:
  Implied bound: 25
  MIR: 136
  Relax-and-lift: 17

Explored 2642 nodes (194987 simplex iterations) in 20.98 seconds (22.37 work units)
Thread count was 9 (of 12 available processors)

Solution count 7: 96.3757 104.953 105.705 ... 136.111

Optimal solution found (tolerance 1.00e-02)
Best objective 9.637569635470e+01, best bound 9.637569635470e+01, gap 0.0000%

Gurobi 10.0.0 (win64) logging started Thu Jun 13 08:29:31 2024

Set parameter LogFile to value "C:\Users\ealvarezq\Documents\GitHub\Comillas\Models\JointResearch\05. Models\06.Benchmarking\D.Representative_days_based_on_RES_and_Demand\RTS24_mod2_ByStages_nc30/openStarNet_RTS24_mod2_ByStages_nc30.log"
Set parameter Method to value 2
Set parameter MIPFocus to value 1
Set parameter Presolve to value 2
Set parameter RINS to value 100
Set parameter MIPGap to value 0.01
Set parameter Threads to value 9
Set parameter TimeLimit to value 259200
Set parameter IterationLimit to value 760000000
Gurobi Optimizer version 10.0.0 build v10.0.0rc2 (win64)

CPU model: Intel(R) Core(TM) i7-8700 CPU @ 3.20GHz, instruction set [SSE2|AVX|AVX2]
Thread count: 6 physical cores, 12 logical processors, using up to 9 threads

Optimize a model with 10653 rows, 7182 columns and 26468 nonzeros
Model fingerprint: 0x6312c8e3
Coefficient statistics:
  Matrix range     [9e-03, 1e+03]
  Objective range  [1e+00, 1e+00]
  Bounds range     [3e-05, 2e+00]
  RHS range        [3e-05, 2e+01]
Presolve removed 8963 rows and 4146 columns
Presolve time: 0.01s
Presolved: 1690 rows, 3088 columns, 7718 nonzeros

Ordering time: 0.00s

Barrier statistics:
 AA' NZ     : 4.520e+03
 Factor NZ  : 1.492e+04 (roughly 2 MB of memory)
 Factor Ops : 2.010e+05 (less than 1 second per iteration)
 Threads    : 1

                  Objective                Residual
Iter       Primal          Dual         Primal    Dual     Compl     Time
   0   2.34491459e+06 -1.84809271e+07  1.10e+01 1.58e+03  3.27e+04     0s
   1   1.54045488e+05 -1.07249043e+07  6.94e-01 1.46e-11  3.52e+03     0s
   2   6.01761344e+04 -3.40491361e+06  2.37e-01 1.82e-11  9.02e+02     0s
   3   2.35005704e+04 -9.02562002e+05  1.80e-02 1.09e-11  1.79e+02     0s
   4   1.32129811e+04 -1.22249540e+05  5.58e-04 1.00e-11  2.50e+01     0s
   5   4.24935283e+03 -1.89957883e+04  3.65e-05 5.97e-12  4.28e+00     0s
   6   7.45868618e+02 -2.59203095e+03  2.81e-06 3.81e-12  6.14e-01     0s
   7   3.75253553e+02 -1.13235799e+03  3.64e-07 6.28e-12  2.77e-01     0s
   8   2.11641577e+02 -1.33189945e+02  4.01e-08 3.20e-12  6.35e-02     0s
   9   1.39063071e+02  4.41944659e+01  1.43e-08 4.01e-12  1.75e-02     0s
  10   1.12694140e+02  7.91540402e+01  5.29e-09 3.38e-12  6.17e-03     0s
  11   1.03043706e+02  9.13209515e+01  2.10e-09 3.07e-12  2.16e-03     0s
  12   9.83112623e+01  9.46788631e+01  5.90e-10 4.28e-12  6.68e-04     0s
  13   9.65374474e+01  9.62802230e+01  4.18e-10 5.39e-12  4.73e-05     0s
  14   9.63762547e+01  9.63747672e+01  6.36e-12 5.50e-12  2.74e-07     0s
  15   9.63756969e+01  9.63756954e+01  4.89e-11 4.71e-12  2.74e-10     0s
  16   9.63756964e+01  9.63756964e+01  6.38e-11 7.32e-12  3.46e-16     0s

Barrier solved model in 16 iterations and 0.04 seconds (0.03 work units)
Optimal objective 9.63756964e+01

Crossover log...

     379 DPushes remaining with DInf 0.0000000e+00                 0s
       0 DPushes remaining with DInf 0.0000000e+00                 0s

     106 PPushes remaining with PInf 0.0000000e+00                 0s
       0 PPushes remaining with PInf 0.0000000e+00                 0s

  Push phase complete: Pinf 0.0000000e+00, Dinf 5.9259368e-13      0s

Iteration    Objective       Primal Inf.    Dual Inf.      Time
     115    9.6375696e+01   0.000000e+00   0.000000e+00      0s

Use crossover to convert LP symmetric solution to basic solution...
Crossover log...

       0 DPushes remaining with DInf 0.0000000e+00                 0s

      83 PPushes remaining with PInf 0.0000000e+00                 0s
       0 PPushes remaining with PInf 0.0000000e+00                 0s

  Push phase complete: Pinf 0.0000000e+00, Dinf 5.2944975e-13      0s

Iteration    Objective       Primal Inf.    Dual Inf.      Time
     207    9.6375696e+01   0.000000e+00   0.000000e+00      0s

Solved in 207 iterations and 0.05 seconds (0.04 work units)
Optimal objective  9.637569635e+01
